56204
8, 44, 32, 41, 19, 48, 17, 23, 21, 22, 29, 10, 16, 46, 39, 36, 15, 52, 42, 33, 1, 27, 31, 25, 11, 45, 2, 14, 12, 9, 18, 4, 30, 47, 54, 34, 53, 49, 26, 55, 6, 28, 3, 43, 40, 51, 13, 5, 37, 7, 20, 50, 24, 35, 38
